Version identifier: 22.1.0.0 | 2022-03-09 | 1a383f8ce
CPXPARAM_Threads                                 1
CPXPARAM_MIP_Strategy_VariableSelect             3
CPXPARAM_TimeLimit                               599.99998167299998
1 of 1 MIP starts provided solutions.
MIP start 'm1' defined initial solution with objective 1.0000.
Tried aggregator 1 time.
MIP Presolve eliminated 20 rows and 0 columns.
MIP Presolve modified 259 coefficients.
Reduced MIP has 901 rows, 2100 columns, and 24656 nonzeros.
Reduced MIP has 2100 binaries, 0 generals, 0 SOSs, and 0 indicators.
Presolve time = 0.05 sec. (58.37 ticks)
Probing time = 0.01 sec. (7.11 ticks)
Tried aggregator 1 time.
Detecting symmetries...
MIP Presolve modified 15 coefficients.
Reduced MIP has 901 rows, 2100 columns, and 25020 nonzeros.
Reduced MIP has 2100 binaries, 0 generals, 0 SOSs, and 0 indicators.
Presolve time = 0.03 sec. (29.48 ticks)
Probing time = 0.01 sec. (7.15 ticks)
Clique table members: 785.
MIP emphasis: balance optimality and feasibility.
MIP search method: dynamic search.
Parallel mode: none, using 1 thread.
Root relaxation solution time = 0.20 sec. (210.65 ticks)

        Nodes                                         Cuts/
   Node  Left     Objective  IInf  Best Integer    Best Bound    ItCnt     Gap

*     0+    0                            1.0000     5050.0000              --- 
      0     0      100.0000   409        1.0000      100.0000     1975     --- 
      0     0      100.0000   168        1.0000    Cliques: 1     2088     --- 
      0     0      100.0000   298        1.0000     Cuts: 115     3149     --- 
      0     0      100.0000   107        1.0000    Cliques: 1     3171     --- 
*     0+    0                           58.0000      100.0000            72.41%
*     0+    0                           90.0000      100.0000            11.11%
      0     0        cutoff             90.0000      100.0000     3171   11.11%
      0     0      100.0000   392       90.0000      Cuts: 52     4030   11.11%
*     0+    0                           93.0000      100.0000             7.53%
      0     0        cutoff             93.0000      100.0000     4030    7.53%
Detecting symmetries...
      0     2      100.0000   102       93.0000      100.0000     4030    7.53%
Elapsed time = 4.17 sec. (4039.61 ticks, tree = 0.01 MB, solutions = 4)
      1     3      100.0000   168       93.0000      100.0000     6404    7.53%
      3     5      100.0000   477       93.0000      100.0000     8358    7.53%
      5     7      100.0000   295       93.0000      100.0000     9485    7.53%
      7     9      100.0000   343       93.0000      100.0000    11386    7.53%
      9    11      100.0000   277       93.0000      100.0000    12629    7.53%
     11    13      100.0000   334       93.0000      100.0000    14070    7.53%
     13    15      100.0000   235       93.0000      100.0000    16028    7.53%
     14    16      100.0000   313       93.0000      100.0000    17948    7.53%
     16    18      100.0000   228       93.0000      100.0000    19837    7.53%
     23    25      100.0000   395       93.0000      100.0000    24483    7.53%
Elapsed time = 8.64 sec. (8485.41 ticks, tree = 0.08 MB, solutions = 4)
     30    32      100.0000   243       93.0000      100.0000    27980    7.53%
     38    40      100.0000   247       93.0000      100.0000    33249    7.53%
     40    42      100.0000   237       93.0000      100.0000    36916    7.53%
     47    49      100.0000   243       93.0000      100.0000    40121    7.53%
     56    58      100.0000   295       93.0000      100.0000    42638    7.53%
     64    66      100.0000   188       93.0000      100.0000    46052    7.53%
     73    75      100.0000   202       93.0000      100.0000    48491    7.53%
     82    84      100.0000   257       93.0000      100.0000    51646    7.53%
     91    93      100.0000   276       93.0000      100.0000    54605    7.53%
    101   103      100.0000   222       93.0000      100.0000    57394    7.53%
Elapsed time = 20.10 sec. (18981.46 ticks, tree = 0.68 MB, solutions = 4)
    111   113      100.0000   188       93.0000      100.0000    60333    7.53%
    123   125      100.0000   222       93.0000      100.0000    62681    7.53%
    135   137      100.0000   184       93.0000      100.0000    64974    7.53%
    143   145      100.0000   252       93.0000      100.0000    67560    7.53%
    154   156      100.0000   174       93.0000      100.0000    70473    7.53%
    165   167      100.0000   166       93.0000      100.0000    72999    7.53%
    178   180      100.0000   165       93.0000      100.0000    76422    7.53%
    194   196      100.0000   158       93.0000      100.0000    78644    7.53%
    211   213      100.0000   129       93.0000      100.0000    81495    7.53%
    230   230      100.0000   132       93.0000      100.0000    85766    7.53%
Elapsed time = 30.60 sec. (28870.16 ticks, tree = 1.72 MB, solutions = 4)
    260   237       99.0000   124       93.0000      100.0000    91724    7.53%
    289   238      100.0000   117       93.0000      100.0000    97691    7.53%
    311   251      100.0000   120       93.0000      100.0000   101810    7.53%
    339   252       99.0000   133       93.0000      100.0000   109191    7.53%
    369   256      100.0000   149       93.0000      100.0000   116269    7.53%
    396   265       99.0000   158       93.0000      100.0000   122802    7.53%
    420   271        cutoff             93.0000      100.0000   129173    7.53%
    449   274      100.0000   139       93.0000      100.0000   136185    7.53%
    466   291      100.0000   187       93.0000      100.0000   139361    7.53%
    481   306      100.0000   141       93.0000      100.0000   142653    7.53%
Elapsed time = 41.27 sec. (38686.15 ticks, tree = 2.36 MB, solutions = 4)
    499   323      100.0000   140       93.0000      100.0000   146959    7.53%
    529   330    infeasible             93.0000      100.0000   154480    7.53%
    561   339       99.0000   120       93.0000      100.0000   159386    7.53%
    585   345        cutoff             93.0000      100.0000   165816    7.53%
    612   350       99.0000   143       93.0000      100.0000   172019    7.53%
    640   352    infeasible             93.0000      100.0000   179049    7.53%
    670   356       99.0000   178       93.0000      100.0000   184961    7.53%
    695   367       99.0000   156       93.0000      100.0000   188681    7.53%
    715   385       99.0000   178       93.0000      100.0000   190921    7.53%
    745   387       99.0000   159       93.0000      100.0000   197617    7.53%
Elapsed time = 51.88 sec. (48421.75 ticks, tree = 3.03 MB, solutions = 4)
    773   389    infeasible             93.0000      100.0000   203390    7.53%
    800   395       99.0000   134       93.0000      100.0000   209593    7.53%
    825   404      100.0000   118       93.0000      100.0000   213611    7.53%
    855   406    infeasible             93.0000      100.0000   220258    7.53%
    880   410       99.8333    87       93.0000      100.0000   225483    7.53%
    901   418      100.0000   143       93.0000      100.0000   230954    7.53%
    924   427      100.0000   173       93.0000      100.0000   236079    7.53%
    948   433      100.0000   155       93.0000      100.0000   241552    7.53%
    965   449       99.0000   171       93.0000      100.0000   245150    7.53%
    987   460      100.0000   153       93.0000      100.0000   250016    7.53%
Elapsed time = 62.56 sec. (58129.38 ticks, tree = 3.62 MB, solutions = 4)
   1018   465       99.0000   139       93.0000      100.0000   256130    7.53%
   1048   470       99.0000   168       93.0000      100.0000   261580    7.53%
   1077   475       99.0000   170       93.0000      100.0000   266680    7.53%
   1103   478       99.0000   172       93.0000      100.0000   273784    7.53%
   1128   481        cutoff             93.0000      100.0000   280338    7.53%
   1158   482       99.0000   167       93.0000      100.0000   286958    7.53%
   1187   484      100.0000   162       93.0000      100.0000   293491    7.53%
   1206   495      100.0000   149       93.0000      100.0000   299991    7.53%
   1231   501    infeasible             93.0000      100.0000   305752    7.53%
   1258   501    infeasible             93.0000      100.0000   312761    7.53%
Elapsed time = 73.50 sec. (67982.93 ticks, tree = 3.98 MB, solutions = 4)
   1284   503    infeasible             93.0000      100.0000   319706    7.53%
   1309   509       99.0000   154       93.0000      100.0000   326024    7.53%
   1329   521      100.0000   142       93.0000      100.0000   331244    7.53%
   1357   524      100.0000   151       93.0000      100.0000   338368    7.53%
   1387   525      100.0000   135       93.0000      100.0000   345312    7.53%
   1420   527       99.0000   163       93.0000      100.0000   351319    7.53%
   1445   532    infeasible             93.0000      100.0000   357144    7.53%
   1465   548      100.0000   151       93.0000      100.0000   359704    7.53%
   1485   565       99.0000   137       93.0000      100.0000   363075    7.53%
   1506   583      100.0000   153       93.0000      100.0000   365660    7.53%
Elapsed time = 84.14 sec. (77729.52 ticks, tree = 4.67 MB, solutions = 4)
   1536   586       99.0000   154       93.0000      100.0000   372029    7.53%
   1568   587      100.0000   163       93.0000      100.0000   377582    7.53%
   1593   596       99.0000   146       93.0000      100.0000   381624    7.53%
   1619   599      100.0000   121       93.0000      100.0000   388545    7.53%
   1650   606       99.0000   118       93.0000      100.0000   395681    7.53%
   1682   608       99.0000   167       93.0000      100.0000   402272    7.53%
   1713   612      100.0000   128       93.0000      100.0000   408059    7.53%
   1737   619      100.0000   147       93.0000      100.0000   414823    7.53%
   1765   628    infeasible             93.0000      100.0000   420657    7.53%
   1794   632      100.0000   149       93.0000      100.0000   426973    7.53%
Elapsed time = 94.89 sec. (87475.44 ticks, tree = 5.08 MB, solutions = 4)
   1825   635       99.0000   125       93.0000      100.0000   432431    7.53%
   1851   638       99.0000   168       93.0000      100.0000   439509    7.53%
   1880   643       99.0000   138       93.0000      100.0000   445504    7.53%
   1909   646      100.0000   148       93.0000      100.0000   451942    7.53%
*  1921+  646                           95.0000      100.0000             5.26%
   1922   648      100.0000   106       95.0000      100.0000   455377    5.26%
   1924   648      100.0000   106       95.0000      100.0000   455745    5.26%
   1950   654       99.0000   146       95.0000      100.0000   463457    5.26%
   1976   658       99.0000   142       95.0000      100.0000   470145    5.26%
   2012   659    infeasible             95.0000      100.0000   477052    5.26%

Performing restart 1

Repeating presolve.
Tried aggregator 1 time.
MIP Presolve eliminated 0 rows and 95 columns.
MIP Presolve modified 12 coefficients.
Reduced MIP has 901 rows, 2005 columns, and 17752 nonzeros.
Reduced MIP has 2005 binaries, 0 generals, 0 SOSs, and 0 indicators.
Presolve time = 0.01 sec. (11.65 ticks)
Tried aggregator 1 time.
Reduced MIP has 901 rows, 2005 columns, and 17752 nonzeros.
Reduced MIP has 2005 binaries, 0 generals, 0 SOSs, and 0 indicators.
Presolve time = 0.02 sec. (12.34 ticks)
Represolve time = 0.15 sec. (72.03 ticks)
   2031     0      100.0000   252       95.0000      Cuts: 10   481219    5.26%
   2031     0      100.0000   307       95.0000     Cuts: 186   481988    5.26%
   2031     0      100.0000   266       95.0000      Cuts: 44   482929    5.26%
   2031     0      100.0000   253       95.0000      Cuts: 12   483552    5.26%
   2031     0      100.0000   190       95.0000      Cuts: 10   484194    5.26%
   2031     0      100.0000   149       95.0000    Cliques: 6   484993    5.26%
   2031     0      100.0000   131       95.0000      Cuts: 11   485318    5.26%
   2031     0      100.0000   239       95.0000     Cuts: 113   485967    5.26%
   2031     0      100.0000   374       95.0000       Cuts: 6   486602    5.26%
   2031     0      100.0000   223       95.0000      Cuts: 20   487077    5.26%
   2031     0      100.0000   190       95.0000      Cuts: 12   487674    5.26%
   2031     0      100.0000   182       95.0000   Cliques: 12   488270    5.26%
   2031     2      100.0000    96       95.0000      100.0000   488270    5.26%
Elapsed time = 124.46 sec. (115446.41 ticks, tree = 0.01 MB, solutions = 5)
   2053    24      100.0000   242       95.0000      100.0000   503073    5.26%
   2089    60      100.0000   240       95.0000      100.0000   510988    5.26%
   2131   100      100.0000   123       95.0000      100.0000   523387    5.26%
   2244   136       99.0000   147       95.0000      100.0000   547517    5.26%
*  2355   158      integral     0       96.0000      100.0000   565811    4.17%
   2364   162       98.0000   144       96.0000      100.0000   567555    4.17%
   2484   199       97.0000   128       96.0000      100.0000   586631    4.17%
   2594   239       98.0000    99       96.0000      100.0000   605784    4.17%
   2701   289       97.0000    70       96.0000      100.0000   623572    4.17%
   2817   312       98.0000   124       96.0000      100.0000   648542    4.17%
   2950   332       99.0000   156       96.0000      100.0000   671140    4.17%
Elapsed time = 170.05 sec. (157376.66 ticks, tree = 2.62 MB, solutions = 6)
   3077   357       99.0000   128       96.0000      100.0000   696718    4.17%
   3201   393      100.0000   115       96.0000      100.0000   716513    4.17%
*  3241   313      integral     0       97.0000      100.0000   722371    3.09%
*  3285   209      integral     0       98.0000      100.0000   732107    2.04%
   3310   216       99.0000   136       98.0000      100.0000   739159    2.04%
   3406   233       99.0000   124       98.0000      100.0000   770463    2.04%
   3506   243        cutoff             98.0000      100.0000   800370    2.04%
   3597   255    infeasible             98.0000      100.0000   831760    2.04%
   3690   270      100.0000    83       98.0000      100.0000   862729    2.04%
   3783   278       99.0000   125       98.0000      100.0000   893892    2.04%
   3869   292       99.0000   153       98.0000      100.0000   927211    2.04%
   3971   297       99.0000   133       98.0000      100.0000   960721    2.04%
Elapsed time = 212.58 sec. (195748.29 ticks, tree = 2.33 MB, solutions = 8)
   4068   304        cutoff             98.0000      100.0000   991281    2.04%
   4161   333       99.0000    88       98.0000      100.0000  1018321    2.04%
   4256   340       99.0000   168       98.0000      100.0000  1050897    2.04%
   4333   343       99.0000   168       98.0000      100.0000  1085609    2.04%
   4426   374    infeasible             98.0000      100.0000  1110975    2.04%
   4525   386       99.0000   131       98.0000      100.0000  1140827    2.04%
   4624   397       99.0000   138       98.0000      100.0000  1171629    2.04%
   4741   412       99.0000   117       98.0000      100.0000  1197110    2.04%
   4847   429       99.0000   116       98.0000      100.0000  1226144    2.04%
   4958   453    infeasible             98.0000      100.0000  1250464    2.04%
Elapsed time = 255.13 sec. (234075.00 ticks, tree = 3.61 MB, solutions = 8)
   5068   470       99.0000   114       98.0000      100.0000  1277511    2.04%
   5165   482       99.0000   159       98.0000      100.0000  1307516    2.04%
   5241   506      100.0000    99       98.0000      100.0000  1334823    2.04%
   5323   511       99.0000    60       98.0000      100.0000  1369294    2.04%
   5404   524       99.0000   177       98.0000      100.0000  1400774    2.04%
   5482   525       99.0000   120       98.0000      100.0000  1436510    2.04%
   5573   528    infeasible             98.0000      100.0000  1467908    2.04%
   5656   551      100.0000   126       98.0000      100.0000  1493774    2.04%
   5737   566    infeasible             98.0000      100.0000  1522945    2.04%
   5807   593       99.0000   145       98.0000      100.0000  1550904    2.04%
Elapsed time = 297.77 sec. (272496.81 ticks, tree = 4.76 MB, solutions = 8)
   5891   617       99.0000   159       98.0000      100.0000  1575021    2.04%
   5972   629    infeasible             98.0000      100.0000  1604232    2.04%
   6060   639    infeasible             98.0000      100.0000  1630644    2.04%
   6106   648      100.0000   291       98.0000      100.0000  1661174    2.04%
   6144   681      100.0000   252       98.0000      100.0000  1674255    2.04%
   6188   704      100.0000   286       98.0000      100.0000  1695690    2.04%
   6226   732      100.0000   312       98.0000      100.0000  1712838    2.04%
   6271   763      100.0000   360       98.0000      100.0000  1729458    2.04%
   6309   801      100.0000   162       98.0000      100.0000  1740834    2.04%
   6367   859      100.0000    66       98.0000      100.0000  1753413    2.04%
Elapsed time = 339.79 sec. (311167.48 ticks, tree = 7.00 MB, solutions = 8)
   6455   914       99.0000   196       98.0000      100.0000  1768719    2.04%
   6541   921       99.0000   141       98.0000      100.0000  1799242    2.04%
   6622   965    infeasible             98.0000      100.0000  1817459    2.04%
   6714  1006       99.0000    76       98.0000      100.0000  1838858    2.04%
   6819  1026      100.0000   136       98.0000      100.0000  1865083    2.04%
   6913  1057       99.0000   149       98.0000      100.0000  1889985    2.04%
   7003  1091      100.0000   103       98.0000      100.0000  1914592    2.04%
   7100  1123      100.0000   121       98.0000      100.0000  1938791    2.04%
*  7113     1      integral     0      100.0000      100.0000  1941173    0.00%

Clique cuts applied:  40
Mixed integer rounding cuts applied:  9
Zero-half cuts applied:  3
Lift and project cuts applied:  1

Root node processing (before b&c):
  Real time             =    4.16 sec. (4031.17 ticks)
Sequential b&c:
  Real time             =  370.23 sec. (338223.34 ticks)
                          ------------
Total (root+branch&cut) =  374.40 sec. (342254.51 ticks)
Primal:	100
Dual:	100
Status:	Optimal
Time:	374.39
Sequence:
	15
	9
	18
	10
	12
	3
	7
	11
	1
	3
	13
	15
	18
	11
	1
	3
	7
	15
	14
	9
	1
	8
	17
	1
	11
	0
	4
	13
	19
	3
	5
	12
	8
	16
	6
	2
	5
	13
	3
	15
	11
	14
	15
	0
	11
	19
	4
	0
	12
	16
	11
	2
	16
	6
	2
	17
	10
	8
	9
	19
	8
	16
	0
	2
	16
	11
	12
	17
	14
	1
	9
	8
	10
	19
	9
	7
	4
	19
	9
	14
	10
	17
	19
	4
	0
	11
	2
	16
	6
	12
	16
	18
	19
	9
	4
	7
	19
	3
	5
	12
